4 100 2063
10 11 10 10 6 6 9 11 4 9
2 3 1 2
2 1
1 5 5
6
7 4
0 40.0 50.0 0.0 0.0 0 240
2 25.0 85.0 10.0 20.0 0 191 96 0 0 1 0 1 0 0 1 0 0
3 22.0 75.0 10.0 30.0 0 199 98 0 0 0 0 0 1 0 0 0 0
4 22.0 85.0 10.0 10.0 0 190 7 1 1 0 0 0 0 0 0 1 1
5 20.0 80.0 10.0 40.0 141 171 28 0 0 0 0 0 0 1 0 0 0
6 20.0 85.0 10.0 20.0 0 189 61 1 0 0 0 0 1 0 1 1 0
7 18.0 75.0 10.0 20.0 0 196 2 0 1 0 1 0 0 0 0 0 0
8 15.0 75.0 10.0 20.0 0 194 71 0 0 0 0 1 0 0 0 0 0
9 15.0 80.0 10.0 10.0 91 121 10 0 0 0 1 1 0 0 0 0 0
10 10.0 35.0 10.0 20.0 91 121 50 0 0 1 0 0 0 1 0 0 0
11 10.0 40.0 10.0 30.0 0 198 90 0 0 0 0 0 0 0 1 0 0
12 8.0 40.0 10.0 40.0 59 89 80 0 1 0 0 0 0 1 0 0 0
13 8.0 45.0 10.0 20.0 0 197 86 0 0 0 1 0 1 0 0 0 0
14 5.0 35.0 10.0 10.0 142 172 76 0 0 0 0 0 0 0 0 0 1
15 5.0 45.0 10.0 10.0 0 194 20 0 0 0 0 0 0 0 1 0 0
16 2.0 40.0 10.0 20.0 58 88 11 0 1 1 0 1 0 0 0 0 0
17 0.0 40.0 10.0 20.0 0 188 38 0 1 0 0 0 0 1 0 0 1
18 0.0 45.0 10.0 20.0 0 189 11 1 0 0 0 0 1 0 0 0 1
19 44.0 5.0 10.0 20.0 0 184 9 0 0 0 0 1 0 1 0 0 0
20 42.0 10.0 10.0 40.0 0 189 32 1 0 0 1 0 0 0 0 0 0
21 42.0 15.0 10.0 10.0 0 194 45 0 1 0 0 0 1 0 0 0 0
22 40.0 5.0 10.0 10.0 0 185 69 0 0 0 1 0 0 0 0 1 0
23 40.0 15.0 10.0 40.0 0 195 31 0 0 0 0 1 0 0 0 0 0
24 38.0 5.0 10.0 30.0 65 95 62 1 1 1 0 0 0 0 0 0 0
25 38.0 15.0 10.0 10.0 0 194 37 0 0 0 0 0 1 0 0 0 0
26 35.0 5.0 10.0 20.0 154 184 19 0 0 0 0 0 0 1 0 0 0
27 95.0 30.0 10.0 30.0 0 171 69 0 0 0 1 0 0 1 0 0 1
28 95.0 35.0 10.0 20.0 0 172 80 0 0 1 0 1 0 0 1 0 1
29 92.0 30.0 10.0 10.0 0 174 75 0 1 0 0 0 0 1 0 0 0
30 90.0 35.0 10.0 10.0 0 177 10 0 0 0 1 0 0 0 1 0 0
31 88.0 30.0 10.0 10.0 0 178 38 1 0 0 0 0 0 1 0 0 0
32 88.0 35.0 10.0 20.0 0 179 42 0 0 0 0 0 0 0 1 0 0
33 87.0 30.0 10.0 10.0 0 178 19 0 1 0 0 1 1 0 1 0 1
34 85.0 25.0 10.0 10.0 0 178 65 0 0 0 1 1 1 0 0 0 0
35 85.0 35.0 10.0 30.0 0 182 61 1 0 0 0 0 0 0 0 1 1
36 67.0 85.0 10.0 20.0 0 185 28 1 0 0 0 0 0 0 1 0 0
37 65.0 85.0 10.0 40.0 0 186 2 1 1 0 0 0 0 0 1 0 0
38 65.0 82.0 10.0 10.0 0 189 18 0 1 1 1 0 0 1 0 0 0
39 62.0 80.0 10.0 30.0 75 105 89 0 0 0 0 0 0 0 1 1 0
40 60.0 80.0 10.0 10.0 0 193 72 0 0 0 0 0 1 0 0 0 0
41 60.0 85.0 10.0 30.0 0 189 12 1 0 0 0 1 1 0 1 0 1
42 58.0 75.0 10.0 20.0 0 199 26 0 0 0 0 0 0 1 0 0 1
43 55.0 80.0 10.0 10.0 0 196 97 0 1 1 1 0 0 0 0 0 0
44 55.0 85.0 10.0 20.0 0 191 67 0 0 0 0 0 1 0 0 0 0
45 55.0 82.0 10.0 10.0 64 94 80 0 0 0 0 0 0 0 0 1 0
46 20.0 82.0 10.0 10.0 0 192 81 0 0 0 0 0 0 0 0 1 0
47 18.0 80.0 10.0 10.0 0 192 79 1 0 0 0 0 0 0 0 0 0
48 2.0 45.0 10.0 10.0 0 191 48 1 0 1 0 0 0 0 0 0 0
49 42.0 5.0 10.0 10.0 0 184 84 0 0 0 0 1 1 1 0 0 0
50 42.0 12.0 10.0 10.0 0 191 92 0 0 0 0 0 1 1 1 0 0
51 72.0 35.0 10.0 30.0 0 194 66 0 0 0 0 0 0 0 0 0 1
52 55.0 20.0 10.0 19.0 0 196 33 1 0 0 0 0 1 0 0 0 0
53 25.0 30.0 10.0 3.0 0 205 72 1 0 1 0 0 0 0 0 0 1
54 20.0 50.0 10.0 5.0 91 121 54 0 0 0 0 0 0 1 1 0 0
55 55.0 60.0 10.0 16.0 0 211 3 1 0 0 0 0 0 1 1 0 1
56 30.0 60.0 10.0 16.0 140 170 68 0 0 0 0 1 1 1 0 0 0
57 50.0 35.0 10.0 19.0 0 211 70 0 0 0 1 0 0 0 0 0 0
58 30.0 25.0 10.0 23.0 0 203 36 0 0 1 0 0 0 0 0 0 1
59 15.0 10.0 10.0 20.0 152 182 5 0 0 0 0 0 0 1 0 0 0
60 10.0 20.0 10.0 19.0 0 187 19 0 0 1 0 0 0 0 0 0 0
61 15.0 60.0 10.0 17.0 0 203 88 0 0 0 1 0 0 0 0 0 0
62 45.0 65.0 10.0 9.0 0 214 20 0 1 0 0 0 0 0 1 0 0
63 65.0 35.0 10.0 3.0 52 82 1 0 0 0 0 0 1 0 0 0 0
64 65.0 20.0 10.0 6.0 0 190 97 0 0 0 1 0 0 1 0 1 1
65 45.0 30.0 10.0 17.0 0 209 99 0 0 0 0 0 0 0 1 0 0
66 35.0 40.0 10.0 16.0 0 218 31 0 0 0 0 1 1 1 1 0 0
67 41.0 37.0 10.0 16.0 0 216 13 0 1 1 0 0 0 0 0 0 0
68 64.0 42.0 10.0 9.0 70 100 0 0 0 0 0 0 0 0 1 1 0
69 40.0 60.0 10.0 21.0 0 220 60 0 0 0 0 0 1 0 0 0 0
70 31.0 52.0 10.0 27.0 41 71 7 0 0 0 0 0 0 0 1 0 0
71 35.0 69.0 10.0 23.0 0 210 47 0 0 0 0 0 1 0 0 0 0
72 65.0 55.0 10.0 14.0 0 204 60 0 0 0 0 1 0 0 1 1 1
73 63.0 65.0 10.0 8.0 0 202 93 1 0 0 0 0 0 0 0 0 0
74 2.0 60.0 10.0 5.0 0 190 4 0 0 1 0 0 0 0 1 0 0
75 20.0 20.0 10.0 8.0 141 171 55 0 1 0 1 0 0 1 0 0 0
76 5.0 5.0 10.0 16.0 0 172 46 0 0 0 1 0 0 0 0 0 0
77 60.0 12.0 10.0 31.0 75 105 90 0 0 0 0 0 1 0 0 0 0
78 23.0 3.0 10.0 7.0 150 180 1 0 0 0 0 0 1 0 0 0 0
79 8.0 56.0 10.0 27.0 0 197 35 0 0 1 0 0 0 0 0 0 0
80 6.0 68.0 10.0 30.0 89 119 14 1 0 1 1 0 0 0 0 1 1
81 47.0 47.0 10.0 13.0 0 222 66 0 1 0 0 0 0 0 0 0 0
82 49.0 58.0 10.0 10.0 0 217 12 0 0 0 0 0 0 1 1 0 0
83 27.0 43.0 10.0 9.0 0 215 51 1 0 0 0 1 0 0 0 0 0
84 37.0 31.0 10.0 14.0 0 210 39 0 0 0 0 0 1 0 0 0 0
85 57.0 29.0 10.0 18.0 96 126 22 0 0 0 0 0 0 0 1 0 1
86 63.0 23.0 10.0 2.0 0 194 10 0 0 0 0 0 1 0 0 0 0
87 21.0 24.0 10.0 28.0 0 197 41 0 0 0 0 0 0 1 0 0 0
88 12.0 24.0 10.0 13.0 90 120 44 1 0 0 0 0 1 0 0 1 0
89 24.0 58.0 10.0 19.0 0 212 40 0 1 0 1 0 0 0 0 0 0
90 67.0 5.0 10.0 25.0 0 177 4 1 0 0 1 0 1 0 1 0 1
91 37.0 47.0 10.0 6.0 0 225 26 1 0 0 1 0 0 0 0 0 0
92 49.0 42.0 10.0 13.0 0 217 56 0 0 0 0 1 0 0 0 0 0
93 53.0 43.0 10.0 14.0 14 44 92 0 0 0 1 0 0 0 0 0 0
94 61.0 52.0 10.0 3.0 0 208 2 0 0 0 0 0 0 1 0 0 0
95 57.0 48.0 10.0 23.0 0 212 71 0 0 1 0 0 0 0 0 0 0
96 56.0 37.0 10.0 6.0 0 209 59 0 1 0 1 0 0 0 0 0 1
97 55.0 54.0 10.0 26.0 0 214 24 1 0 0 0 0 0 0 1 0 1
98 4.0 18.0 10.0 35.0 0 181 50 0 0 0 1 0 0 0 0 1 1
99 26.0 52.0 10.0 9.0 0 215 51 0 1 0 0 0 0 1 0 1 0
100 26.0 35.0 10.0 15.0 77 107 5 0 1 0 0 1 1 1 0 1 0
101 31.0 67.0 10.0 3.0 180 210 19 1 1 1 0 0 0 0 0 0 0